
List of user-set options:

                                    Name   Value                used
                           linear_solver = mumps                 yes
                  ma57_automatic_scaling = yes                    no
                                max_iter = 2000                  yes
                             mu_strategy = adaptive              yes
                             output_file = DynamicOptimization_FtildeState_GPOPS_IPOPTinfo.txt  yes
                             print_level = 5                     yes
                      print_user_options = yes                   yes
                                     tol = 1e-006                yes
This is Ipopt version 3.11.0, running with linear solver mumps.

Number of nonzeros in equality constraint Jacobian...:   395045
Number of nonzeros in inequality constraint Jacobian.:      172
Number of nonzeros in Lagrangian Hessian.............:   148674

Total number of variables............................:    75489
                     variables with only lower bounds:        0
                variables with lower and upper bounds:    75489
                     variables with only upper bounds:        0
Total number of equality constraints.................:    57085
Total number of inequality constraints...............:       87
        inequality constraints with only lower bounds:        0
   inequality constraints with lower and upper bounds:       87
        inequality constraints with only upper bounds:        0

iter    objective    inf_pr   inf_du lg(mu)  ||d||  lg(rg) alpha_du alpha_pr  ls
   0 9.9999900e-003 4.81e+002 1.28e-002   0.0 0.00e+000    -  0.00e+000 0.00e+000   0
   1 2.0288433e+000 1.13e+002 6.44e+002  -4.9 2.02e+000    -  4.88e-003 1.00e+000h  1
   2 3.8796992e+001 3.14e+002 4.89e+002   0.2 1.51e+002    -  1.84e-001 2.43e-001f  1
   3 5.6166017e+001 2.91e+002 4.65e+002   0.9 2.72e+002    -  6.55e-001 6.39e-002f  1
   4 2.0784757e+002 6.28e+002 2.17e+002   0.9 1.52e+002    -  3.80e-001 1.00e+000f  1
   5 2.4149416e+002 2.12e+002 2.08e+002   0.9 3.36e+001   0.0 6.72e-001 1.00e+000f  1
   6 2.4824361e+002 2.44e+001 2.61e+001   0.3 6.75e+000   0.4 9.89e-001 1.00e+000h  1
   7 2.4823790e+002 3.58e-001 1.08e+001  -5.7 1.69e-001  -0.1 9.51e-001 1.00e+000h  1
   8 2.4496448e+002 1.79e-002 9.70e-001  -2.6 3.27e+000  -0.5 9.94e-001 1.00e+000f  1
   9 2.3487762e+002 1.36e-001 9.96e-001  -4.1 1.01e+001  -1.0 1.00e+000 1.00e+000f  1
iter    objective    inf_pr   inf_du lg(mu)  ||d||  lg(rg) alpha_du alpha_pr  ls
  10 2.0457371e+002 1.94e+000 9.98e-001  -5.5 3.03e+001  -1.5 1.00e+000 1.00e+000f  1
  11 1.1372836e+002 2.11e+001 9.97e-001  -6.4 9.08e+001  -2.0 1.00e+000 1.00e+000f  1
  12 6.7329879e+001 2.05e+001 9.96e-001  -4.4 2.70e+002  -2.4 1.00e+000 1.72e-001f  1
  13 6.7470060e+000 9.30e+001 9.89e-001  -2.8 7.52e+002  -2.9 6.44e-002 8.06e-002f  1
  14 8.1160427e-002 1.24e+002 9.77e-001  -1.9 4.40e+002  -3.4 4.85e-002 1.52e-002f  1
  15 1.0427217e-001 1.31e+002 1.24e+000  -1.9 1.26e+001  -3.9 1.00e+000 4.36e-002h  2
  16 5.2770215e-002 2.28e+002 6.77e-001  -2.4 3.90e+001    -  4.83e-001 3.76e-001h  2
  17 2.2478371e-001 1.12e+002 1.05e+000  -8.1 3.02e+000  -2.5 1.34e-001 5.10e-001H  1
  18 1.3787212e+001 2.40e+002 1.29e+000  -1.7 1.49e+001  -2.1 6.06e-002 9.11e-001f  1
  19 1.5673217e+001 9.23e+001 5.04e-001  -2.2 2.86e+000  -0.8 1.00e+000 6.60e-001h  1
iter    objective    inf_pr   inf_du lg(mu)  ||d||  lg(rg) alpha_du alpha_pr  ls
  20 1.6703799e+001 6.92e+001 7.18e-001  -2.2 3.89e+000  -0.4 7.36e-001 2.65e-001h  1
  21 2.2357205e+001 1.62e+001 8.26e-001  -2.2 5.65e+000  -0.8 1.00e+000 1.00e+000h  1
  22 2.0314625e+001 1.39e+000 1.96e-001  -3.2 2.04e+000  -1.3 8.89e-001 1.00e+000h  1
  23 1.4467328e+001 7.49e+000 9.50e-002  -3.5 5.85e+000  -1.8 1.00e+000 1.00e+000h  1
  24 8.5866644e+000 8.81e+000 3.18e-002  -3.7 5.88e+000  -2.3 8.74e-001 1.00e+000h  1
  25 4.8386828e+000 1.09e+001 6.76e-003  -3.7 3.75e+000  -2.7 1.00e+000 1.00e+000h  1
  26 4.4476392e+000 7.31e+000 7.40e-004  -3.7 1.20e+000  -3.2 1.00e+000 1.00e+000h  1
  27 2.1447613e+000 2.26e+001 5.61e-003  -4.4 2.30e+000  -3.7 7.65e-001 1.00e+000h  1
  28 2.1549471e+000 2.26e+001 1.08e-002  -4.2 4.14e+000  -4.2 7.54e-001 8.10e-001h  1
  29 2.2001533e+000 1.05e+001 1.94e-002  -4.2 1.42e+000  -3.7 8.62e-001 7.26e-001h  1
iter    objective    inf_pr   inf_du lg(mu)  ||d||  lg(rg) alpha_du alpha_pr  ls
  30 1.6978355e+000 4.74e+001 5.21e-003  -4.5 3.50e+000  -4.2 5.35e-001 9.02e-001h  1
  31 1.4541261e+000 9.33e+000 1.09e-003  -4.6 1.15e+000  -3.8 8.69e-001 1.00e+000h  1
  32 1.2382188e+000 1.38e+000 3.43e-004  -4.9 4.24e-001  -3.4 9.83e-001 1.00e+000h  1
  33 1.0777174e+000 8.79e+001 5.28e-003  -5.1 1.23e+000  -3.9 6.81e-001 1.00e+000h  1
  34 1.1692924e+000 1.43e+002 4.98e-003  -4.0 3.21e+001  -4.3 1.13e-001 4.63e-002h  1
  35 1.2342677e+000 6.70e+001 1.08e-003  -4.8 1.03e+000  -3.9 1.00e+000 1.00e+000h  1
  36 1.0966056e+000 8.34e+001 1.08e-003  -5.0 1.55e+000  -4.4 8.93e-001 1.00e+000h  1
  37 1.0642344e+000 5.52e+001 1.06e-003  -5.1 2.45e+000    -  1.00e+000 1.00e+000h  1
  38 1.0010396e+000 6.03e+001 1.92e-003  -5.3 1.95e+000    -  8.51e-001 1.00e+000h  1
  39 9.5524431e-001 7.28e+000 9.66e-004  -5.5 6.28e-001  -4.9 1.00e+000 1.00e+000h  1
iter    objective    inf_pr   inf_du lg(mu)  ||d||  lg(rg) alpha_du alpha_pr  ls
  40 9.7161484e-001 1.51e+001 5.37e-003  -5.3 2.58e+000  -5.3 3.03e-001 2.89e-001h  1
  41 9.7232745e-001 3.79e+000 3.04e-003  -5.4 6.44e-001    -  1.00e+000 5.94e-001h  1
  42 9.6536492e-001 1.64e+000 2.42e-003  -5.5 4.08e-001    -  1.00e+000 9.56e-001h  1
  43 9.6520306e-001 1.03e+000 1.46e-003  -5.5 5.32e-001    -  9.18e-001 6.69e-001h  1
  44 9.5183587e-001 1.38e+001 9.31e-004  -5.5 1.63e+000    -  9.89e-001 1.00e+000h  1
  45 9.3683599e-001 2.81e+000 6.61e-004  -5.7 6.08e-001    -  9.97e-001 1.00e+000h  1
  46 9.1288797e-001 3.28e+000 5.37e-004  -5.9 7.59e-001    -  9.89e-001 1.00e+000h  1
  47 9.0781468e-001 1.22e+000 2.56e-004  -6.1 5.07e-001    -  1.00e+000 1.00e+000h  1
  48 9.0718682e-001 7.15e+000 3.94e-004  -6.1 4.88e-001    -  9.60e-001 1.00e+000h  1
  49 8.9571889e-001 1.19e+000 2.83e-004  -6.6 2.14e-001  -4.0 1.00e+000 1.00e+000h  1
iter    objective    inf_pr   inf_du lg(mu)  ||d||  lg(rg) alpha_du alpha_pr  ls
  50 8.9611270e-001 6.24e+000 1.28e-004  -6.5 4.22e-001  -4.5 8.61e-001 1.00e+000h  1
  51 9.0301149e-001 2.94e+000 4.54e-005  -6.2 7.00e-001  -5.0 1.00e+000 1.00e+000h  1
  52 9.0224792e-001 2.08e+000 1.40e-004  -6.3 6.61e-001    -  5.10e-001 3.35e-001h  1
  53 9.0080511e-001 8.50e-001 3.48e-004  -6.3 9.94e-002    -  1.68e-001 1.00e+000h  1
  54 8.9435760e-001 1.05e+001 5.01e-005  -6.7 5.85e-001    -  1.00e+000 1.00e+000h  1
  55 8.9780548e-001 1.46e+000 1.54e-005  -6.4 1.88e-001    -  1.00e+000 1.00e+000h  1
  56 8.9629324e-001 1.25e+001 1.86e-005  -6.5 3.08e-001    -  1.00e+000 1.00e+000h  1
  57 8.9252888e-001 4.27e+000 4.21e-005  -7.0 1.62e-001    -  1.00e+000 1.00e+000h  1
  58 8.9210669e-001 3.50e+000 2.41e-005  -7.2 1.51e-001    -  1.00e+000 1.00e+000h  1
  59 8.9213206e-001 2.99e-001 7.44e-005  -7.2 5.83e-002    -  8.05e-001 1.00e+000h  1
iter    objective    inf_pr   inf_du lg(mu)  ||d||  lg(rg) alpha_du alpha_pr  ls
  60 8.9152532e-001 8.67e-002 4.48e-006  -7.5 5.94e-002    -  1.00e+000 1.00e+000h  1
  61 8.9148315e-001 2.25e-001 5.08e-004  -7.6 2.98e-001    -  1.00e+000 5.00e-001h  2
  62 8.9122981e-001 3.33e-002 3.11e-006  -7.9 2.82e-002    -  1.00e+000 1.00e+000h  1
  63 8.9112185e-001 2.79e-002 9.25e-007  -8.4 1.90e-002    -  1.00e+000 1.00e+000h  1
  64 8.9108837e-001 1.27e-002 4.51e-007  -8.8 1.17e-002    -  1.00e+000 1.00e+000h  1
  65 8.9107553e-001 2.81e-003 1.39e-007  -9.1 6.40e-003    -  1.00e+000 1.00e+000h  1
  66 8.9107016e-001 5.37e-004 2.41e-008  -9.4 2.33e-003    -  1.00e+000 1.00e+000h  1
  67 8.9106623e-001 3.13e-004 1.84e-008  -9.9 1.86e-003    -  1.00e+000 1.00e+000h  1
  68 8.9106536e-001 5.02e-005 7.70e-009 -10.3 9.20e-004    -  1.00e+000 1.00e+000h  1
  69 8.9106501e-001 1.22e-005 2.84e-009 -10.8 4.70e-004    -  1.00e+000 1.00e+000h  1
iter    objective    inf_pr   inf_du lg(mu)  ||d||  lg(rg) alpha_du alpha_pr  ls
  70 8.9106493e-001 2.22e-006 2.13e-005 -11.0 2.48e-004    -  9.71e-001 1.00e+000h  1
  71 8.9106493e-001 7.01e-008 1.28e-011 -11.0 4.70e-005    -  1.00e+000 1.00e+000h  1

Number of Iterations....: 71

                                   (scaled)                 (unscaled)
Objective...............:  8.9106492890483868e-001   8.9106492890483868e-001
Dual infeasibility......:  1.2764470468906746e-011   1.2764470468906746e-011
Constraint violation....:  1.3608440191010681e-008   7.0050646172603592e-008
Complementarity.........:  1.0996160042580341e-011   1.0996160042580341e-011
Overall NLP error.......:  1.3608440191010681e-008   7.0050646172603592e-008


Number of objective function evaluations             = 83
Number of objective gradient evaluations             = 72
Number of equality constraint evaluations            = 83
Number of inequality constraint evaluations          = 83
Number of equality constraint Jacobian evaluations   = 72
Number of inequality constraint Jacobian evaluations = 72
Number of Lagrangian Hessian evaluations             = 71
Total CPU secs in IPOPT (w/o function evaluations)   =    102.778
Total CPU secs in NLP function evaluations           =    840.217

EXIT: Optimal Solution Found.
